(set-logic QF_S)
(set-option :parse-transducers true)
(set-option :produce-models true)
(define-fun-rec toLower ((x String) (y String)) Bool
   (or (and (= x "") (= y ""))
       (and (not (= x "")) (not (= y ""))
           (= (char.code (str.head y))
               (ite (and (<= 65 (char.code (str.head x)))
                       (<= (char.code (str.head x)) 90))
                   (+ (char.code (str.head x)) 32)
                   (char.code (str.head x))))
           (toLower (str.tail x) (str.tail y))))
)
(declare-fun sym122 () String)
(declare-fun sym970 () String)
(declare-fun sym1312 () String)
(declare-fun sym400 () String)
(declare-fun sym247 () String)
(declare-fun sym742 () String)
(declare-fun sym1198 () String)
(declare-fun sym514 () String)
(declare-fun sym856 () String)
(declare-fun sym1084 () String)
(declare-fun sym628 () String)
(declare-fun L8  () String)
(declare-fun L5  () String)
(declare-fun L10  () String)
(declare-fun L21  () String)
(declare-fun L6  () String)
(declare-fun L4  () String)
(declare-fun L1  () String)
(declare-fun L2  () String)
(declare-fun L0  () String)
(declare-fun L29  () String)
(declare-fun L19  () String)
(assert (toLower sym856  L19 ))
(assert (toLower sym742  L29 ))
(assert (toLower sym1198  L0 ))
(assert (toLower sym1084  L2 ))
(assert (toLower sym122  L1 ))
(assert (toLower sym1312  L4 ))
(assert (toLower sym400  L6 ))
(assert (toLower sym970  L21 ))
(assert (toLower sym514  L10 ))
(assert (toLower sym247  L5 ))
(assert (toLower sym628  L8 ))

(assert (not (= L0 "/restart" )))
(assert (not (= L1 "elementary" )))
(assert (not (= L2 "/restart" )))
(assert (not (str.contains L0 "/setfont" )))
(assert (= L4 "/quit" ))
(assert (not (= L5 "/clear" )))
(assert (not (str.contains L6 "/say" )))
(assert (not (str.contains L0 "/setsize" )))
(assert (not (= L8 "/help" )))
(assert (not (= L6 "y" )))
(assert (not (= L10 "/clear" )))
(assert (not (= L10 "y" )))
(assert (not (= L8 "/quit" )))
(assert (not (= L5 "/?" )))
(assert (not (str.contains L2 "/say" )))
(assert (not (= L10 "/restart" )))
(assert (not (= L8 "n" )))
(assert (not (str.contains L2 "/setsize" )))
(assert (= L1 "middle school" ))
(assert (not (str.contains L19 "/say" )))
(assert (not (str.contains L5 "/say" )))
(assert (not (= L21 "/quit" )))
(assert (not (= L6 "/?" )))
(assert (not (= L0 "y" )))
(assert (not (= L6 "/help" )))
(assert (not (= L6 "/quit" )))
(assert (not (str.contains L6 "/setsize" )))
(assert (not (= L0 "/?" )))
(assert (not (= L6 "/restart" )))
(assert (not (= L29 "/help" )))
(assert (not (= L29 "n" )))
(assert (not (= L0 "n" )))
(assert (not (= L5 "/help" )))
(assert (not (str.contains L21 "/setsize" )))
(assert (not (= L29 "y" )))
(assert (not (= L8 "/?" )))
(assert (not (= L5 "n" )))
(assert (not (str.contains L21 "/setfont" )))
(assert (not (= L2 "/clear" )))
(assert (not (= L5 "/restart" )))
(assert (not (= L5 "/quit" )))
(assert (not (= L4 "/restart" )))
(assert (not (str.contains L29 "/setfont" )))
(assert (not (= L10 "/?" )))
(assert (not (= L10 "n" )))
(assert (not (str.contains L8 "/say" )))
(assert (not (= L4 "n" )))
(assert (not (= L19 "/clear" )))
(assert (not (= L21 "/restart" )))
(assert (not (= L21 "/?" )))
(assert (not (= L6 "n" )))
(assert (not (= L29 "/quit" )))
(assert (not (str.contains L5 "/setsize" )))
(assert (not (= L10 "/quit" )))
(assert (not (= L2 "/?" )))
(assert (not (= L2 "/help" )))
(assert (not (= L19 "/restart" )))
(assert (not (= L0 "/quit" )))
(assert (not (= L8 "/restart" )))
(assert (not (= L8 "/clear" )))
(assert (not (str.contains L29 "/setsize" )))
(assert (not (str.contains L5 "/setfont" )))
(assert (not (= L19 "/?" )))
(assert (not (= L8 "y" )))
(assert (not (= L21 "/clear" )))
(assert (not (= L0 "/help" )))
(assert (not (= L29 "/restart" )))
(assert (not (str.contains L8 "/setfont" )))
(assert (not (= L0 "/clear" )))
(assert (not (= L21 "n" )))
(assert (not (str.contains L10 "/say" )))
(assert (not (= L2 "/quit" )))
(assert (not (str.contains L19 "/setfont" )))
(assert (not (= L21 "y" )))
(assert (not (= L19 "/quit" )))
(assert (not (str.contains L8 "/setsize" )))
(assert (not (= L19 "n" )))
(assert (not (str.contains L2 "/setfont" )))
(assert (not (= L2 "y" )))
(assert (not (= L19 "y" )))
(assert (not (= L21 "/help" )))
(assert (not (str.contains L10 "/setfont" )))
(assert (not (= L4 "y" )))
(assert (not (= L29 "/?" )))
(assert (not (= L6 "/clear" )))
(assert (not (= L10 "/help" )))
(assert (not (str.contains L6 "/setfont" )))
(assert (not (= L2 "n" )))
(assert (not (str.contains L19 "/setsize" )))
(assert (not (str.contains L0 "/say" )))
(assert (not (= L5 "y" )))
(assert (not (str.contains L21 "/say" )))
(assert (not (= L29 "/clear" )))
(assert (not (str.contains L29 "/say" )))
(assert (not (= L19 "/help" )))
(assert (not (str.contains L10 "/setsize" )))
(check-sat)
(get-model)
(exit)
